sat
(:max-memory          18.65
 :memory              17.66
 :num-allocs          5509451063.00
 :rlimit-count        1385820
 :sls-constraints     4181
 :sls-ddfw-flips      2180104.00
 :sls-ddfw-reinits    21
 :sls-ddfw-restarts   1375
 :sls-ddfw-shifts     1071644.00
 :sls.euf-conflict    9862
 :solve-eqs-elim-vars 5
 :solve-eqs-steps     12
 :time                3.67
 :total-time          3.66)
